c Standarized MaxSat Instance
c{
c "sha1sum": "1f4feba0dd903dcc60a5ffe87e73b03bf6edd10d",
c "nvars": 40,
c "ncls": 1136,
c "nhards": 0,
c "nhard_len_stats":
c    { "min": 0, "max": 0, "ave": 0.00,
c      "stddev": 0.00 },
c "nsofts": 1136,
c "nsoft_len_stats":
c    { "min": 2, "max": 2, "ave": 2.00,
c      "stddev": 0.00 },
c "nsoft_wts": 10,
c "soft_wt_stats":
c    { "min": 1, "max": 10, "ave": 5.65,
c      "stddev": 2.80 }
c}
c------------------------------------------------------------
c FILE:  brock400_3.b
c
c Graph Generator
c
c By: Mark Brockington (brock@cs.ualberta.ca)
c and Joe Culberson (joe@cs.ualberta.ca)
c
c Graph Size:400, Clique Size: 31
c Seed:0, Edge Density:  0.75000
c Depth 1 Hiding
c
c Clique Elements are:
c 133 17 92 177 38 19 233 387 84 134 
c 303 251 206 347 220 107 89 310 275 185 
c 91 259 67 141 379 261 149 364 72 101 
c 222 
c
c Estimated Size of Uncompressed File:   0.6MB
c
p wcnf 40 1136 6417
9 1 2 0
9 -1 -2 0
4 1 3 0
4 -1 -3 0
8 1 4 0
8 -1 -4 0
8 1 5 0
8 -1 -5 0
10 1 8 0
10 -1 -8 0
2 1 9 0
2 -1 -9 0
4 1 10 0
4 -1 -10 0
8 1 11 0
8 -1 -11 0
3 1 13 0
3 -1 -13 0
6 1 14 0
6 -1 -14 0
5 1 17 0
5 -1 -17 0
7 1 18 0
7 -1 -18 0
4 1 19 0
4 -1 -19 0
6 1 20 0
6 -1 -20 0
10 1 21 0
10 -1 -21 0
10 1 23 0
10 -1 -23 0
7 1 24 0
7 -1 -24 0
8 1 26 0
8 -1 -26 0
2 1 27 0
2 -1 -27 0
7 1 28 0
7 -1 -28 0
1 1 29 0
1 -1 -29 0
3 1 30 0
3 -1 -30 0
2 1 32 0
2 -1 -32 0
9 1 33 0
9 -1 -33 0
2 1 35 0
2 -1 -35 0
5 1 36 0
5 -1 -36 0
2 1 37 0
2 -1 -37 0
2 1 39 0
2 -1 -39 0
10 1 40 0
10 -1 -40 0
3 2 3 0
3 -2 -3 0
6 2 4 0
6 -2 -4 0
9 2 5 0
9 -2 -5 0
7 2 6 0
7 -2 -6 0
3 2 7 0
3 -2 -7 0
7 2 8 0
7 -2 -8 0
6 2 10 0
6 -2 -10 0
5 2 11 0
5 -2 -11 0
10 2 12 0
10 -2 -12 0
3 2 13 0
3 -2 -13 0
8 2 15 0
8 -2 -15 0
6 2 16 0
6 -2 -16 0
8 2 18 0
8 -2 -18 0
5 2 19 0
5 -2 -19 0
9 2 20 0
9 -2 -20 0
3 2 21 0
3 -2 -21 0
4 2 25 0
4 -2 -25 0
9 2 26 0
9 -2 -26 0
10 2 27 0
10 -2 -27 0
1 2 28 0
1 -2 -28 0
10 2 29 0
10 -2 -29 0
6 2 30 0
6 -2 -30 0
1 2 31 0
1 -2 -31 0
2 2 34 0
2 -2 -34 0
7 2 35 0
7 -2 -35 0
9 2 36 0
9 -2 -36 0
4 2 37 0
4 -2 -37 0
1 2 38 0
1 -2 -38 0
1 2 40 0
1 -2 -40 0
5 3 5 0
5 -3 -5 0
1 3 6 0
1 -3 -6 0
3 3 7 0
3 -3 -7 0
10 3 8 0
10 -3 -8 0
10 3 9 0
10 -3 -9 0
9 3 11 0
9 -3 -11 0
3 3 12 0
3 -3 -12 0
6 3 13 0
6 -3 -13 0
4 3 14 0
4 -3 -14 0
8 3 15 0
8 -3 -15 0
6 3 18 0
6 -3 -18 0
7 3 20 0
7 -3 -20 0
6 3 21 0
6 -3 -21 0
1 3 22 0
1 -3 -22 0
5 3 24 0
5 -3 -24 0
10 3 25 0
10 -3 -25 0
10 3 26 0
10 -3 -26 0
8 3 28 0
8 -3 -28 0
3 3 29 0
3 -3 -29 0
8 3 30 0
8 -3 -30 0
7 3 31 0
7 -3 -31 0
4 3 32 0
4 -3 -32 0
7 3 33 0
7 -3 -33 0
2 3 34 0
2 -3 -34 0
5 3 35 0
5 -3 -35 0
9 3 36 0
9 -3 -36 0
9 3 39 0
9 -3 -39 0
4 3 40 0
4 -3 -40 0
3 4 5 0
3 -4 -5 0
9 4 6 0
9 -4 -6 0
4 4 7 0
4 -4 -7 0
7 4 8 0
7 -4 -8 0
10 4 10 0
10 -4 -10 0
6 4 11 0
6 -4 -11 0
7 4 14 0
7 -4 -14 0
9 4 15 0
9 -4 -15 0
5 4 16 0
5 -4 -16 0
10 4 17 0
10 -4 -17 0
4 4 18 0
4 -4 -18 0
9 4 19 0
9 -4 -19 0
7 4 20 0
7 -4 -20 0
10 4 21 0
10 -4 -21 0
5 4 22 0
5 -4 -22 0
3 4 23 0
3 -4 -23 0
10 4 24 0
10 -4 -24 0
10 4 25 0
10 -4 -25 0
2 4 26 0
2 -4 -26 0
9 4 27 0
9 -4 -27 0
7 4 29 0
7 -4 -29 0
5 4 30 0
5 -4 -30 0
7 4 33 0
7 -4 -33 0
3 4 34 0
3 -4 -34 0
8 4 35 0
8 -4 -35 0
4 4 36 0
4 -4 -36 0
5 4 38 0
5 -4 -38 0
3 4 39 0
3 -4 -39 0
2 4 40 0
2 -4 -40 0
3 5 6 0
3 -5 -6 0
6 5 7 0
6 -5 -7 0
5 5 8 0
5 -5 -8 0
2 5 10 0
2 -5 -10 0
10 5 11 0
10 -5 -11 0
2 5 13 0
2 -5 -13 0
2 5 14 0
2 -5 -14 0
5 5 15 0
5 -5 -15 0
8 5 16 0
8 -5 -16 0
10 5 17 0
10 -5 -17 0
10 5 19 0
10 -5 -19 0
7 5 20 0
7 -5 -20 0
4 5 22 0
4 -5 -22 0
8 5 23 0
8 -5 -23 0
4 5 24 0
4 -5 -24 0
3 5 25 0
3 -5 -25 0
3 5 26 0
3 -5 -26 0
6 5 28 0
6 -5 -28 0
3 5 29 0
3 -5 -29 0
2 5 30 0
2 -5 -30 0
8 5 35 0
8 -5 -35 0
2 5 36 0
2 -5 -36 0
8 5 37 0
8 -5 -37 0
2 5 39 0
2 -5 -39 0
8 5 40 0
8 -5 -40 0
1 6 7 0
1 -6 -7 0
10 6 9 0
10 -6 -9 0
1 6 10 0
1 -6 -10 0
6 6 12 0
6 -6 -12 0
2 6 14 0
2 -6 -14 0
3 6 15 0
3 -6 -15 0
8 6 16 0
8 -6 -16 0
8 6 18 0
8 -6 -18 0
7 6 21 0
7 -6 -21 0
10 6 23 0
10 -6 -23 0
7 6 24 0
7 -6 -24 0
8 6 25 0
8 -6 -25 0
1 6 26 0
1 -6 -26 0
2 6 28 0
2 -6 -28 0
6 6 30 0
6 -6 -30 0
1 6 32 0
1 -6 -32 0
1 6 34 0
1 -6 -34 0
3 6 36 0
3 -6 -36 0
5 6 37 0
5 -6 -37 0
9 6 38 0
9 -6 -38 0
6 6 39 0
6 -6 -39 0
8 6 40 0
8 -6 -40 0
1 7 8 0
1 -7 -8 0
2 7 9 0
2 -7 -9 0
10 7 10 0
10 -7 -10 0
3 7 12 0
3 -7 -12 0
9 7 14 0
9 -7 -14 0
2 7 15 0
2 -7 -15 0
10 7 17 0
10 -7 -17 0
1 7 19 0
1 -7 -19 0
9 7 20 0
9 -7 -20 0
1 7 21 0
1 -7 -21 0
1 7 23 0
1 -7 -23 0
10 7 24 0
10 -7 -24 0
6 7 25 0
6 -7 -25 0
2 7 26 0
2 -7 -26 0
2 7 27 0
2 -7 -27 0
4 7 28 0
4 -7 -28 0
10 7 29 0
10 -7 -29 0
9 7 30 0
9 -7 -30 0
4 7 31 0
4 -7 -31 0
6 7 32 0
6 -7 -32 0
6 7 33 0
6 -7 -33 0
5 7 35 0
5 -7 -35 0
7 7 36 0
7 -7 -36 0
1 7 37 0
1 -7 -37 0
6 7 38 0
6 -7 -38 0
8 7 40 0
8 -7 -40 0
4 8 9 0
4 -8 -9 0
10 8 10 0
10 -8 -10 0
6 8 11 0
6 -8 -11 0
9 8 14 0
9 -8 -14 0
8 8 16 0
8 -8 -16 0
7 8 17 0
7 -8 -17 0
1 8 18 0
1 -8 -18 0
8 8 19 0
8 -8 -19 0
9 8 21 0
9 -8 -21 0
10 8 22 0
10 -8 -22 0
9 8 24 0
9 -8 -24 0
9 8 25 0
9 -8 -25 0
10 8 26 0
10 -8 -26 0
8 8 27 0
8 -8 -27 0
10 8 30 0
10 -8 -30 0
10 8 31 0
10 -8 -31 0
7 8 32 0
7 -8 -32 0
5 8 33 0
5 -8 -33 0
2 8 35 0
2 -8 -35 0
9 8 36 0
9 -8 -36 0
9 8 37 0
9 -8 -37 0
1 8 38 0
1 -8 -38 0
7 8 39 0
7 -8 -39 0
3 8 40 0
3 -8 -40 0
7 9 10 0
7 -9 -10 0
3 9 11 0
3 -9 -11 0
8 9 13 0
8 -9 -13 0
4 9 14 0
4 -9 -14 0
4 9 16 0
4 -9 -16 0
3 9 18 0
3 -9 -18 0
1 9 19 0
1 -9 -19 0
7 9 20 0
7 -9 -20 0
3 9 22 0
3 -9 -22 0
7 9 23 0
7 -9 -23 0
6 9 24 0
6 -9 -24 0
10 9 25 0
10 -9 -25 0
3 9 27 0
3 -9 -27 0
6 9 28 0
6 -9 -28 0
8 9 30 0
8 -9 -30 0
2 9 32 0
2 -9 -32 0
5 9 34 0
5 -9 -34 0
6 9 35 0
6 -9 -35 0
10 9 36 0
10 -9 -36 0
5 9 37 0
5 -9 -37 0
4 9 38 0
4 -9 -38 0
9 9 39 0
9 -9 -39 0
5 10 11 0
5 -10 -11 0
1 10 12 0
1 -10 -12 0
4 10 15 0
4 -10 -15 0
6 10 16 0
6 -10 -16 0
9 10 19 0
9 -10 -19 0
3 10 21 0
3 -10 -21 0
7 10 22 0
7 -10 -22 0
5 10 23 0
5 -10 -23 0
5 10 24 0
5 -10 -24 0
4 10 25 0
4 -10 -25 0
8 10 28 0
8 -10 -28 0
2 10 31 0
2 -10 -31 0
7 10 32 0
7 -10 -32 0
1 10 33 0
1 -10 -33 0
5 10 35 0
5 -10 -35 0
7 10 36 0
7 -10 -36 0
7 10 37 0
7 -10 -37 0
7 10 38 0
7 -10 -38 0
4 10 39 0
4 -10 -39 0
2 11 12 0
2 -11 -12 0
7 11 13 0
7 -11 -13 0
7 11 14 0
7 -11 -14 0
8 11 15 0
8 -11 -15 0
4 11 18 0
4 -11 -18 0
8 11 21 0
8 -11 -21 0
3 11 25 0
3 -11 -25 0
10 11 26 0
10 -11 -26 0
7 11 27 0
7 -11 -27 0
7 11 29 0
7 -11 -29 0
3 11 32 0
3 -11 -32 0
6 11 33 0
6 -11 -33 0
1 11 35 0
1 -11 -35 0
3 11 36 0
3 -11 -36 0
9 11 37 0
9 -11 -37 0
7 11 38 0
7 -11 -38 0
1 11 39 0
1 -11 -39 0
2 11 40 0
2 -11 -40 0
4 12 13 0
4 -12 -13 0
6 12 14 0
6 -12 -14 0
6 12 16 0
6 -12 -16 0
7 12 17 0
7 -12 -17 0
3 12 18 0
3 -12 -18 0
8 12 19 0
8 -12 -19 0
3 12 21 0
3 -12 -21 0
4 12 22 0
4 -12 -22 0
2 12 23 0
2 -12 -23 0
10 12 25 0
10 -12 -25 0
1 12 26 0
1 -12 -26 0
9 12 27 0
9 -12 -27 0
4 12 28 0
4 -12 -28 0
2 12 32 0
2 -12 -32 0
5 12 33 0
5 -12 -33 0
10 12 34 0
10 -12 -34 0
10 12 35 0
10 -12 -35 0
8 12 36 0
8 -12 -36 0
7 12 37 0
7 -12 -37 0
2 12 39 0
2 -12 -39 0
7 12 40 0
7 -12 -40 0
4 13 15 0
4 -13 -15 0
8 13 16 0
8 -13 -16 0
10 13 17 0
10 -13 -17 0
10 13 18 0
10 -13 -18 0
9 13 19 0
9 -13 -19 0
3 13 20 0
3 -13 -20 0
8 13 21 0
8 -13 -21 0
6 13 22 0
6 -13 -22 0
3 13 24 0
3 -13 -24 0
10 13 25 0
10 -13 -25 0
10 13 26 0
10 -13 -26 0
9 13 27 0
9 -13 -27 0
5 13 28 0
5 -13 -28 0
6 13 30 0
6 -13 -30 0
2 13 31 0
2 -13 -31 0
3 13 33 0
3 -13 -33 0
9 13 34 0
9 -13 -34 0
5 13 35 0
5 -13 -35 0
5 13 36 0
5 -13 -36 0
9 13 38 0
9 -13 -38 0
5 13 39 0
5 -13 -39 0
3 13 40 0
3 -13 -40 0
2 14 15 0
2 -14 -15 0
7 14 16 0
7 -14 -16 0
8 14 19 0
8 -14 -19 0
2 14 20 0
2 -14 -20 0
7 14 21 0
7 -14 -21 0
5 14 23 0
5 -14 -23 0
9 14 24 0
9 -14 -24 0
8 14 25 0
8 -14 -25 0
2 14 26 0
2 -14 -26 0
3 14 27 0
3 -14 -27 0
5 14 28 0
5 -14 -28 0
2 14 29 0
2 -14 -29 0
2 14 30 0
2 -14 -30 0
4 14 32 0
4 -14 -32 0
4 14 33 0
4 -14 -33 0
10 14 34 0
10 -14 -34 0
10 14 37 0
10 -14 -37 0
7 14 38 0
7 -14 -38 0
9 14 39 0
9 -14 -39 0
9 14 40 0
9 -14 -40 0
5 15 16 0
5 -15 -16 0
4 15 17 0
4 -15 -17 0
4 15 18 0
4 -15 -18 0
7 15 19 0
7 -15 -19 0
7 15 21 0
7 -15 -21 0
3 15 22 0
3 -15 -22 0
2 15 24 0
2 -15 -24 0
1 15 26 0
1 -15 -26 0
2 15 27 0
2 -15 -27 0
7 15 28 0
7 -15 -28 0
4 15 29 0
4 -15 -29 0
3 15 30 0
3 -15 -30 0
4 15 31 0
4 -15 -31 0
1 15 32 0
1 -15 -32 0
5 15 34 0
5 -15 -34 0
10 15 36 0
10 -15 -36 0
6 15 37 0
6 -15 -37 0
3 15 38 0
3 -15 -38 0
7 15 39 0
7 -15 -39 0
8 15 40 0
8 -15 -40 0
5 16 18 0
5 -16 -18 0
2 16 21 0
2 -16 -21 0
9 16 22 0
9 -16 -22 0
7 16 23 0
7 -16 -23 0
6 16 24 0
6 -16 -24 0
3 16 25 0
3 -16 -25 0
6 16 26 0
6 -16 -26 0
5 16 27 0
5 -16 -27 0
9 16 29 0
9 -16 -29 0
4 16 30 0
4 -16 -30 0
3 16 32 0
3 -16 -32 0
4 16 33 0
4 -16 -33 0
8 16 36 0
8 -16 -36 0
7 16 37 0
7 -16 -37 0
10 16 38 0
10 -16 -38 0
4 16 39 0
4 -16 -39 0
9 17 18 0
9 -17 -18 0
2 17 19 0
2 -17 -19 0
5 17 23 0
5 -17 -23 0
1 17 24 0
1 -17 -24 0
8 17 25 0
8 -17 -25 0
8 17 26 0
8 -17 -26 0
3 17 28 0
3 -17 -28 0
2 17 29 0
2 -17 -29 0
9 17 30 0
9 -17 -30 0
8 17 31 0
8 -17 -31 0
1 17 32 0
1 -17 -32 0
5 17 34 0
5 -17 -34 0
10 17 36 0
10 -17 -36 0
8 17 37 0
8 -17 -37 0
3 17 38 0
3 -17 -38 0
5 17 39 0
5 -17 -39 0
9 17 40 0
9 -17 -40 0
1 18 19 0
1 -18 -19 0
1 18 20 0
1 -18 -20 0
4 18 21 0
4 -18 -21 0
4 18 22 0
4 -18 -22 0
7 18 23 0
7 -18 -23 0
9 18 24 0
9 -18 -24 0
2 18 25 0
2 -18 -25 0
1 18 27 0
1 -18 -27 0
1 18 28 0
1 -18 -28 0
5 18 29 0
5 -18 -29 0
8 18 30 0
8 -18 -30 0
7 18 31 0
7 -18 -31 0
5 18 32 0
5 -18 -32 0
2 18 35 0
2 -18 -35 0
6 18 36 0
6 -18 -36 0
6 18 37 0
6 -18 -37 0
6 18 38 0
6 -18 -38 0
6 18 39 0
6 -18 -39 0
4 18 40 0
4 -18 -40 0
4 19 21 0
4 -19 -21 0
9 19 22 0
9 -19 -22 0
5 19 23 0
5 -19 -23 0
2 19 24 0
2 -19 -24 0
7 19 25 0
7 -19 -25 0
6 19 26 0
6 -19 -26 0
7 19 28 0
7 -19 -28 0
6 19 31 0
6 -19 -31 0
3 19 33 0
3 -19 -33 0
9 19 35 0
9 -19 -35 0
1 19 36 0
1 -19 -36 0
1 19 37 0
1 -19 -37 0
10 19 38 0
10 -19 -38 0
2 19 39 0
2 -19 -39 0
5 19 40 0
5 -19 -40 0
3 20 21 0
3 -20 -21 0
9 20 22 0
9 -20 -22 0
3 20 24 0
3 -20 -24 0
4 20 26 0
4 -20 -26 0
9 20 27 0
9 -20 -27 0
4 20 28 0
4 -20 -28 0
9 20 29 0
9 -20 -29 0
7 20 30 0
7 -20 -30 0
1 20 35 0
1 -20 -35 0
3 20 36 0
3 -20 -36 0
8 20 37 0
8 -20 -37 0
7 20 38 0
7 -20 -38 0
9 20 39 0
9 -20 -39 0
4 20 40 0
4 -20 -40 0
3 21 22 0
3 -21 -22 0
2 21 23 0
2 -21 -23 0
7 21 25 0
7 -21 -25 0
2 21 27 0
2 -21 -27 0
7 21 28 0
7 -21 -28 0
8 21 29 0
8 -21 -29 0
8 21 30 0
8 -21 -30 0
3 21 31 0
3 -21 -31 0
5 21 33 0
5 -21 -33 0
4 21 34 0
4 -21 -34 0
5 21 35 0
5 -21 -35 0
3 21 37 0
3 -21 -37 0
4 21 38 0
4 -21 -38 0
6 21 39 0
6 -21 -39 0
2 21 40 0
2 -21 -40 0
6 22 23 0
6 -22 -23 0
1 22 24 0
1 -22 -24 0
4 22 25 0
4 -22 -25 0
4 22 26 0
4 -22 -26 0
4 22 27 0
4 -22 -27 0
8 22 28 0
8 -22 -28 0
3 22 29 0
3 -22 -29 0
7 22 30 0
7 -22 -30 0
6 22 33 0
6 -22 -33 0
10 22 34 0
10 -22 -34 0
7 22 36 0
7 -22 -36 0
9 22 37 0
9 -22 -37 0
7 22 38 0
7 -22 -38 0
4 22 39 0
4 -22 -39 0
7 22 40 0
7 -22 -40 0
1 23 26 0
1 -23 -26 0
6 23 28 0
6 -23 -28 0
9 23 29 0
9 -23 -29 0
7 23 30 0
7 -23 -30 0
7 23 31 0
7 -23 -31 0
6 23 32 0
6 -23 -32 0
5 23 33 0
5 -23 -33 0
4 23 34 0
4 -23 -34 0
8 23 35 0
8 -23 -35 0
9 23 36 0
9 -23 -36 0
7 23 37 0
7 -23 -37 0
2 23 38 0
2 -23 -38 0
1 23 39 0
1 -23 -39 0
1 23 40 0
1 -23 -40 0
7 24 26 0
7 -24 -26 0
2 24 27 0
2 -24 -27 0
7 24 28 0
7 -24 -28 0
8 24 29 0
8 -24 -29 0
6 24 30 0
6 -24 -30 0
1 24 31 0
1 -24 -31 0
1 24 33 0
1 -24 -33 0
4 24 34 0
4 -24 -34 0
3 24 35 0
3 -24 -35 0
7 24 39 0
7 -24 -39 0
9 24 40 0
9 -24 -40 0
2 25 26 0
2 -25 -26 0
4 25 27 0
4 -25 -27 0
7 25 28 0
7 -25 -28 0
9 25 29 0
9 -25 -29 0
7 25 31 0
7 -25 -31 0
4 25 32 0
4 -25 -32 0
9 25 35 0
9 -25 -35 0
2 25 36 0
2 -25 -36 0
2 25 37 0
2 -25 -37 0
6 25 38 0
6 -25 -38 0
9 25 39 0
9 -25 -39 0
7 25 40 0
7 -25 -40 0
10 26 27 0
10 -26 -27 0
2 26 28 0
2 -26 -28 0
4 26 31 0
4 -26 -31 0
8 26 33 0
8 -26 -33 0
9 26 35 0
9 -26 -35 0
6 26 36 0
6 -26 -36 0
8 26 37 0
8 -26 -37 0
10 26 39 0
10 -26 -39 0
3 26 40 0
3 -26 -40 0
10 27 32 0
10 -27 -32 0
6 27 33 0
6 -27 -33 0
10 27 34 0
10 -27 -34 0
5 27 36 0
5 -27 -36 0
6 27 37 0
6 -27 -37 0
10 27 38 0
10 -27 -38 0
8 27 39 0
8 -27 -39 0
9 27 40 0
9 -27 -40 0
6 28 30 0
6 -28 -30 0
7 28 31 0
7 -28 -31 0
10 28 32 0
10 -28 -32 0
10 28 34 0
10 -28 -34 0
4 28 35 0
4 -28 -35 0
9 28 38 0
9 -28 -38 0
6 28 40 0
6 -28 -40 0
7 29 30 0
7 -29 -30 0
8 29 31 0
8 -29 -31 0
8 29 34 0
8 -29 -34 0
8 29 36 0
8 -29 -36 0
3 29 38 0
3 -29 -38 0
7 29 39 0
7 -29 -39 0
5 29 40 0
5 -29 -40 0
2 30 31 0
2 -30 -31 0
8 30 32 0
8 -30 -32 0
9 30 33 0
9 -30 -33 0
9 30 34 0
9 -30 -34 0
7 30 36 0
7 -30 -36 0
5 30 37 0
5 -30 -37 0
7 30 39 0
7 -30 -39 0
6 30 40 0
6 -30 -40 0
7 31 32 0
7 -31 -32 0
6 31 33 0
6 -31 -33 0
2 31 35 0
2 -31 -35 0
6 31 37 0
6 -31 -37 0
1 31 38 0
1 -31 -38 0
8 31 39 0
8 -31 -39 0
6 32 37 0
6 -32 -37 0
9 32 39 0
9 -32 -39 0
6 32 40 0
6 -32 -40 0
2 33 36 0
2 -33 -36 0
5 33 37 0
5 -33 -37 0
6 33 38 0
6 -33 -38 0
1 33 40 0
1 -33 -40 0
9 34 35 0
9 -34 -35 0
4 34 36 0
4 -34 -36 0
7 34 38 0
7 -34 -38 0
5 34 39 0
5 -34 -39 0
2 34 40 0
2 -34 -40 0
5 35 36 0
5 -35 -36 0
3 35 38 0
3 -35 -38 0
5 35 40 0
5 -35 -40 0
1 36 37 0
1 -36 -37 0
8 36 39 0
8 -36 -39 0
6 36 40 0
6 -36 -40 0
9 37 40 0
9 -37 -40 0
6 38 39 0
6 -38 -39 0
5 39 40 0
5 -39 -40 0
